Section 2 Modelling the Task Allocation Problem/Instance5.param.solution
language ESSENCE' 1.0
$ Minion SolverNodes: 103
$ Minion SolverTotalTime: 0.001335
$ Minion SolverTimeOut: 0
$ Savile Row TotalTime: 0.493
letting Allocation be [[false, false, true, false, false], 
[false, false, false, true, false], 
[false, false, false, false, true], 
[true, false, false, false, false], 
[false, true, false, false, false]]
letting cost be 0
